g3 0 1 0	# problem d5n8R0R6d005d05
 8 5 1 0 0	# vars, constraints, objectives, ranges, eqns
 4 1	# nonlinear constraints, objectives
 0 0	# network constraints: nonlinear, linear
 8 8 8	# nonlinear vars in constraints, objectives, both
 0 0 0 1	# linear network variables; functions; arith, flags
 0 0 0 0 0	# discrete variables: binary, integer, nonlinear (b,c,o)
 40 8	# nonzeros in Jacobian, gradients
 0 0	# max name lengths: constraints, variables
 0 0 0 0 0	# common exprs: b,c,o,c1,o1
b
0 0.08 2.91
0 0.36 2.2
0 0.59 2.68
0 0.35 2.85
0 0.28 2.17
0 0.6 2.58
0 0.69 2.14
0 0.31 2.88
r
2 53.62
2 177.356
2 654.367
2 1900.87
2 83.834
C0
o2
o2
n7.38
v1
v3
C1
o54
7
o2
o2
n8.14
v1
v3
o2
o2
o2
n9.34
v0
v0
v4
o2
o2
o2
n8.73
v0
v2
v2
o16
o2
o2
o2
n0.6
v0
v3
v5
o2
o2
o2
n8.53
v0
v3
v6
o2
o2
o2
n0.78
v3
v5
v6
o2
o2
o2
n9.13
v5
v5
v7
C2
o54
24
o2
o2
n1.28
v1
v3
o2
o2
o2
n6.59
v0
v0
v4
o2
o2
o2
n6.02
v0
v2
v2
o2
o2
o2
n0.08
v0
v3
v5
o2
o2
o2
n4.58
v0
v3
v6
o2
o2
o2
n6.19
v3
v5
v6
o2
o2
o2
n6.86
v5
v5
v7
o2
o2
o2
o2
n3.53
v0
v0
v2
v2
o2
o2
o2
o2
n6.53
v0
v1
v4
v5
o2
o2
o2
o2
n1.2
v0
v1
v4
v7
o2
o2
o2
o2
n9.58
v0
v2
v4
v5
o2
o2
o2
o2
n8.02
v0
v2
v6
v6
o2
o2
o2
o2
n9.19
v1
v1
v3
v4
o2
o2
o2
o2
n8.72
v1
v1
v3
v5
o2
o2
o2
o2
n4.69
v1
v1
v3
v7
o2
o2
o2
o2
n7.7
v1
v1
v5
v7
o2
o2
o2
o2
n7.64
v1
v2
v5
v6
o2
o2
o2
o2
n5.54
v1
v3
v3
v4
o2
o2
o2
o2
n2.57
v1
v4
v4
v4
o2
o2
o2
o2
n8.47
v2
v2
v3
v3
o2
o2
o2
o2
n5.36
v2
v2
v6
v7
o2
o2
o2
o2
n6.35
v2
v3
v3
v3
o2
o2
o2
o2
n7.04
v2
v3
v4
v5
o2
o2
o2
o2
n9.27
v4
v4
v4
v6
C3
o54
64
o2
o2
n1.74
v1
v3
o16
o2
o2
o2
n4.2
v0
v0
v4
o2
o2
o2
n6.82
v0
v2
v2
o2
o2
o2
n9.23
v0
v3
v5
o2
o2
o2
n5.96
v0
v3
v6
o2
o2
o2
n1.11
v3
v5
v6
o2
o2
o2
n5.16
v5
v5
v7
o2
o2
o2
o2
n5.84
v0
v0
v2
v2
o2
o2
o2
o2
n7.18
v0
v1
v4
v5
o2
o2
o2
o2
n6.84
v0
v1
v4
v7
o2
o2
o2
o2
n9.17
v0
v2
v4
v5
o16
o2
o2
o2
o2
n5.64
v0
v2
v6
v6
o2
o2
o2
o2
n1.52
v1
v1
v3
v4
o2
o2
o2
o2
n4.77
v1
v1
v3
v5
o16
o2
o2
o2
o2
n6.02
v1
v1
v3
v7
o2
o2
o2
o2
n2.98
v1
v1
v5
v7
o2
o2
o2
o2
n5.89
v1
v2
v5
v6
o2
o2
o2
o2
n8.32
v1
v3
v3
v4
o2
o2
o2
o2
n5.63
v1
v4
v4
v4
o2
o2
o2
o2
n9.26
v2
v2
v3
v3
o2
o2
o2
o2
n3.44
v2
v2
v6
v7
o2
o2
o2
o2
n9.11
v2
v3
v3
v3
o2
o2
o2
o2
n4.1
v2
v3
v4
v5
o2
o2
o2
o2
n4.27
v4
v4
v4
v6
o2
o2
o2
o2
o2
n5.05
v0
v0
v0
v3
v3
o16
o2
o2
o2
o2
o2
n1.34
v0
v0
v0
v4
v4
o2
o2
o2
o2
o2
n3.48
v0
v0
v1
v2
v5
o16
o2
o2
o2
o2
o2
n3.69
v0
v0
v1
v7
v7
o2
o2
o2
o2
o2
n7.3
v0
v1
v1
v3
v4
o2
o2
o2
o2
o2
n2.5
v0
v1
v1
v3
v5
o2
o2
o2
o2
o2
n7.73
v0
v1
v6
v6
v6
o2
o2
o2
o2
o2
n2.9
v0
v2
v2
v6
v6
o16
o2
o2
o2
o2
o2
n6.46
v0
v2
v3
v4
v4
o2
o2
o2
o2
o2
n0.24
v0
v2
v3
v6
v7
o2
o2
o2
o2
o2
n4.95
v0
v2
v6
v7
v7
o2
o2
o2
o2
o2
n7.01
v1
v1
v1
v1
v2
o2
o2
o2
o2
o2
n8.93
v1
v1
v2
v6
v7
o2
o2
o2
o2
o2
n5.58
v1
v1
v5
v6
v6
o2
o2
o2
o2
o2
n5.83
v1
v2
v2
v2
v2
o2
o2
o2
o2
o2
n7.16
v1
v2
v2
v2
v3
o2
o2
o2
o2
o2
n7.8
v1
v2
v3
v4
v5
o2
o2
o2
o2
o2
n2.27
v1
v2
v5
v5
v5
o2
o2
o2
o2
o2
n8.43
v1
v2
v5
v5
v7
o2
o2
o2
o2
o2
n3.03
v1
v2
v6
v7
v7
o2
o2
o2
o2
o2
n5.69
v1
v3
v3
v6
v6
o2
o2
o2
o2
o2
n2.52
v1
v3
v3
v7
v7
o2
o2
o2
o2
o2
n9.1
v1
v6
v6
v6
v6
o2
o2
o2
o2
o2
n1.67
v1
v6
v6
v6
v7
o2
o2
o2
o2
o2
n3.88
v2
v2
v2
v2
v6
o2
o2
o2
o2
o2
n8.85
v2
v2
v2
v4
v5
o2
o2
o2
o2
o2
n9.77
v2
v2
v2
v4
v7
o2
o2
o2
o2
o2
n2.52
v2
v2
v4
v4
v4
o2
o2
o2
o2
o2
n7.65
v2
v2
v5
v5
v5
o2
o2
o2
o2
o2
n2.29
v2
v3
v4
v5
v5
o16
o2
o2
o2
o2
o2
n1.36
v2
v3
v6
v6
v6
o2
o2
o2
o2
o2
n8.67
v2
v5
v5
v6
v6
o2
o2
o2
o2
o2
n7.88
v3
v3
v3
v4
v4
o2
o2
o2
o2
o2
n6.79
v3
v3
v4
v5
v6
o2
o2
o2
o2
o2
n3.53
v3
v4
v4
v4
v4
o2
o2
o2
o2
o2
n4.47
v3
v4
v5
v5
v6
o2
o2
o2
o2
o2
n8.92
v3
v7
v7
v7
v7
o2
o2
o2
o2
o2
n9.89
v4
v4
v4
v4
v4
o16
o2
o2
o2
o2
o2
n0.68
v4
v5
v6
v6
v7
o2
o2
o2
o2
o2
n9.24
v5
v5
v5
v6
v7
C4
n0
O0 0
o54
64
o2
o2
n0.23
v1
v3
o16
o2
o2
o2
n0.44
v0
v0
v4
o2
o2
o2
n1.33
v0
v2
v2
o2
o2
o2
n2.28
v0
v3
v5
o2
o2
o2
n0.13
v0
v3
v6
o2
o2
o2
n1.31
v3
v5
v6
o2
o2
o2
n0.57
v5
v5
v7
o2
o2
o2
o2
n4.47
v0
v0
v2
v2
o2
o2
o2
o2
n8.35
v0
v1
v4
v5
o2
o2
o2
o2
n0.74
v0
v1
v4
v7
o2
o2
o2
o2
n4.92
v0
v2
v4
v5
o16
o2
o2
o2
o2
n0.17
v0
v2
v6
v6
o2
o2
o2
o2
n1.73
v1
v1
v3
v4
o16
o2
o2
o2
o2
n3.87
v1
v1
v3
v5
o2
o2
o2
o2
n2.25
v1
v1
v3
v7
o16
o2
o2
o2
o2
n5.11
v1
v1
v5
v7
o2
o2
o2
o2
n4.76
v1
v2
v5
v6
o2
o2
o2
o2
n7.03
v1
v3
v3
v4
o2
o2
o2
o2
n3.72
v1
v4
v4
v4
o2
o2
o2
o2
n7.03
v2
v2
v3
v3
o2
o2
o2
o2
n2.41
v2
v2
v6
v7
o2
o2
o2
o2
n3.42
v2
v3
v3
v3
o2
o2
o2
o2
n4.76
v2
v3
v4
v5
o2
o2
o2
o2
n4.43
v4
v4
v4
v6
o2
o2
o2
o2
o2
n9.21
v0
v0
v0
v3
v3
o2
o2
o2
o2
o2
n5.01
v0
v0
v0
v4
v4
o2
o2
o2
o2
o2
n2.26
v0
v0
v1
v2
v5
o2
o2
o2
o2
o2
n1.67
v0
v0
v1
v7
v7
o2
o2
o2
o2
o2
n4.67
v0
v1
v1
v3
v4
o2
o2
o2
o2
o2
n0.72
v0
v1
v1
v3
v5
o2
o2
o2
o2
o2
n8.08
v0
v1
v6
v6
v6
o2
o2
o2
o2
o2
n0.21
v0
v2
v2
v6
v6
o2
o2
o2
o2
o2
n4.81
v0
v2
v3
v4
v4
o2
o2
o2
o2
o2
n0.82
v0
v2
v3
v6
v7
o2
o2
o2
o2
o2
n8.75
v0
v2
v6
v7
v7
o2
o2
o2
o2
o2
n6.15
v1
v1
v1
v1
v2
o2
o2
o2
o2
o2
n0.04
v1
v1
v2
v6
v7
o16
o2
o2
o2
o2
o2
n7.58
v1
v1
v5
v6
v6
o2
o2
o2
o2
o2
n1.47
v1
v2
v2
v2
v2
o2
o2
o2
o2
o2
n4.06
v1
v2
v2
v2
v3
o2
o2
o2
o2
o2
n9.29
v1
v2
v3
v4
v5
o2
o2
o2
o2
o2
n2.22
v1
v2
v5
v5
v5
o2
o2
o2
o2
o2
n6.34
v1
v2
v5
v5
v7
o16
o2
o2
o2
o2
o2
n6.98
v1
v2
v6
v7
v7
o2
o2
o2
o2
o2
n0.3
v1
v3
v3
v6
v6
o2
o2
o2
o2
o2
n8.06
v1
v3
v3
v7
v7
o2
o2
o2
o2
o2
n4.8
v1
v6
v6
v6
v6
o2
o2
o2
o2
o2
n2.71
v1
v6
v6
v6
v7
o2
o2
o2
o2
o2
n6.27
v2
v2
v2
v2
v6
o2
o2
o2
o2
o2
n9.91
v2
v2
v2
v4
v5
o2
o2
o2
o2
o2
n4.38
v2
v2
v2
v4
v7
o16
o2
o2
o2
o2
o2
n6.39
v2
v2
v4
v4
v4
o2
o2
o2
o2
o2
n8.71
v2
v2
v5
v5
v5
o2
o2
o2
o2
o2
n9.78
v2
v3
v4
v5
v5
o2
o2
o2
o2
o2
n9.7
v2
v3
v6
v6
v6
o2
o2
o2
o2
o2
n9.23
v2
v5
v5
v6
v6
o2
o2
o2
o2
o2
n6.51
v3
v3
v3
v4
v4
o2
o2
o2
o2
o2
n8.75
v3
v3
v4
v5
v6
o2
o2
o2
o2
o2
n9.66
v3
v4
v4
v4
v4
o2
o2
o2
o2
o2
n3.6
v3
v4
v5
v5
v6
o2
o2
o2
o2
o2
n1.31
v3
v7
v7
v7
v7
o2
o2
o2
o2
o2
n5.15
v4
v4
v4
v4
v4
o2
o2
o2
o2
o2
n0.92
v4
v5
v6
v6
v7
o16
o2
o2
o2
o2
o2
n4.29
v5
v5
v5
v6
v7
k7
5
10
15
20
25
30
35
J0 8
0 2.87
1 -7.55
2 3.78
3 0.64
4 4.47
5 7.84
6 4.03
7 8.17
J1 8
0 9.27
1 -4.66
2 5
3 2.11
4 -5.14
5 1.96
6 7.56
7 4.42
J2 8
0 -9.13
1 8.56
2 0.57
3 4.66
4 8.49
5 3.09
6 9.28
7 0.28
J3 8
0 5.79
1 8.14
2 5
3 9.64
4 0.18
5 0.82
6 2.48
7 3.52
J4 8
0 9.12
1 8.99
2 7.65
3 6.05
4 8.14
5 2.59
6 7.5
7 7.4
G0 8
0 2.82
1 9.57
2 0.87
3 6.51
4 2.84
5 4.77
6 -7.85
7 7.33
